3220 2929
3220 3090
400 391
3667 3480
3667 3540
3667 3734
696 853
2058 1943
1459 1009
1459 1373
1604 932
1451 1373
1451 1729
91 8
3480 3540
3480 3734
3132 3297
2929 3090
3540 3734
2645 1958
2645 2027
2160 2587
3642 3576
1943 2201
1943 2551
1943 2578
3576 3707
2578 2201
2578 2551
1373 898
1373 1729
1729 898
1729 1009
2201 2551
2027 1958
2355 2400
3626 3592
1275 1815
1401 1291
